p cnf 1039 2724
1 -2 0
2 -1 0
3 4 0
5 4 0
6 4 0
7 4 0
8 4 0
9 4 0
10 4 0
11 4 0
12 4 0
-13 0
-14 4 -15 0
14 -4 -15 0
15 -4 -14 0
14 4 15 0
-15 0
5 16 0
6 16 0
7 16 0
8 16 0
9 16 0
10 16 0
11 16 0
12 16 0
-17 0
16 -18 -19 0
18 -16 -19 0
19 -16 -18 0
18 16 19 0
-19 0
6 20 0
7 20 0
8 20 0
9 20 0
10 20 0
11 20 0
12 20 0
-21 0
20 -22 -23 0
22 -20 -23 0
23 -20 -22 0
22 20 23 0
-23 0
7 24 0
8 24 0
9 24 0
10 24 0
11 24 0
12 24 0
-25 0
24 -26 -27 0
26 -24 -27 0
27 -24 -26 0
26 24 27 0
-27 0
8 28 0
9 28 0
10 28 0
11 28 0
12 28 0
-29 0
-30 28 -31 0
30 -28 -31 0
31 -28 -30 0
30 28 31 0
-31 0
28 -32 -33 0
32 -28 -33 0
33 -28 -32 0
32 28 33 0
-33 0
28 -34 -35 0
34 -28 -35 0
35 -28 -34 0
34 28 35 0
-35 0
28 -36 -37 0
36 -28 -37 0
37 -28 -36 0
36 28 37 0
-37 0
28 -38 -39 0
38 -28 -39 0
39 -28 -38 0
38 28 39 0
-39 0
40 41 0
42 41 0
43 41 0
44 41 0
45 41 0
46 41 0
47 41 0
48 41 0
49 41 0
50 41 0
-51 0
-52 41 -53 0
52 -41 -53 0
53 -41 -52 0
52 41 53 0
-53 0
42 54 0
43 54 0
44 54 0
45 54 0
46 54 0
47 54 0
48 54 0
49 54 0
50 54 0
-55 0
54 -56 -57 0
56 -54 -57 0
57 -54 -56 0
56 54 57 0
-57 0
43 58 0
44 58 0
45 58 0
46 58 0
47 58 0
48 58 0
49 58 0
50 58 0
-59 0
58 -60 -61 0
60 -58 -61 0
61 -58 -60 0
60 58 61 0
-61 0
44 62 0
45 62 0
46 62 0
47 62 0
48 62 0
49 62 0
50 62 0
-63 0
62 -64 -65 0
64 -62 -65 0
65 -62 -64 0
64 62 65 0
-65 0
45 66 0
46 66 0
47 66 0
48 66 0
49 66 0
50 66 0
-67 0
66 -68 -69 0
68 -66 -69 0
69 -66 -68 0
68 66 69 0
-69 0
46 70 0
47 70 0
48 70 0
49 70 0
50 70 0
-71 0
70 -72 -73 0
72 -70 -73 0
73 -70 -72 0
72 70 73 0
-73 0
47 74 0
48 74 0
49 74 0
50 74 0
-75 0
74 -76 -77 0
76 -74 -77 0
77 -74 -76 0
76 74 77 0
-77 0
74 -78 -79 0
78 -74 -79 0
79 -74 -78 0
78 74 79 0
-79 0
74 -80 -81 0
80 -74 -81 0
81 -74 -80 0
80 74 81 0
-81 0
74 -82 -83 0
82 -74 -83 0
83 -74 -82 0
82 74 83 0
-83 0
84 85 0
86 85 0
87 85 0
88 85 0
89 85 0
90 85 0
91 85 0
92 85 0
93 85 0
94 85 0
95 85 0
-96 0
-97 85 -98 0
97 -85 -98 0
98 -85 -97 0
97 85 98 0
-98 0
86 99 0
87 99 0
88 99 0
89 99 0
90 99 0
91 99 0
92 99 0
93 99 0
94 99 0
95 99 0
-100 0
99 -101 -102 0
101 -99 -102 0
102 -99 -101 0
101 99 102 0
-102 0
87 103 0
88 103 0
89 103 0
90 103 0
91 103 0
92 103 0
93 103 0
94 103 0
95 103 0
-104 0
103 -105 -106 0
105 -103 -106 0
106 -103 -105 0
105 103 106 0
-106 0
88 107 0
89 107 0
90 107 0
91 107 0
92 107 0
93 107 0
94 107 0
95 107 0
-108 0
107 -109 -110 0
109 -107 -110 0
110 -107 -109 0
109 107 110 0
-110 0
89 111 0
90 111 0
91 111 0
92 111 0
93 111 0
94 111 0
95 111 0
-112 0
111 -113 -114 0
113 -111 -114 0
114 -111 -113 0
113 111 114 0
-114 0
90 115 0
91 115 0
92 115 0
93 115 0
94 115 0
95 115 0
-116 0
115 -117 -118 0
117 -115 -118 0
118 -115 -117 0
117 115 118 0
-118 0
115 -119 -120 0
119 -115 -120 0
120 -115 -119 0
119 115 120 0
-120 0
115 -121 -122 0
121 -115 -122 0
122 -115 -121 0
121 115 122 0
-122 0
115 -123 -124 0
123 -115 -124 0
124 -115 -123 0
123 115 124 0
-124 0
115 -125 -126 0
125 -115 -126 0
126 -115 -125 0
125 115 126 0
-126 0
115 -127 -128 0
127 -115 -128 0
128 -115 -127 0
127 115 128 0
-128 0
6 129 0
7 129 0
8 129 0
9 129 0
10 129 0
11 129 0
12 129 0
130 129 0
131 129 0
-132 0
-133 129 -134 0
133 -129 -134 0
134 -129 -133 0
133 129 134 0
-134 0
6 135 0
7 135 0
8 135 0
9 135 0
10 135 0
11 135 0
12 135 0
131 135 0
-136 0
135 -137 -138 0
137 -135 -138 0
138 -135 -137 0
137 135 138 0
-138 0
139 140 0
141 140 0
142 140 0
143 140 0
144 140 0
145 140 0
-146 0
-147 140 -148 0
147 -140 -148 0
148 -140 -147 0
147 140 148 0
-148 0
141 149 0
142 149 0
143 149 0
144 149 0
145 149 0
-150 0
149 -151 -152 0
151 -149 -152 0
152 -149 -151 0
151 149 152 0
-152 0
149 -153 -154 0
153 -149 -154 0
154 -149 -153 0
153 149 154 0
-154 0
149 -155 -156 0
155 -149 -156 0
156 -149 -155 0
155 149 156 0
-156 0
149 -157 -158 0
157 -149 -158 0
158 -149 -157 0
157 149 158 0
-158 0
149 -159 -160 0
159 -149 -160 0
160 -149 -159 0
159 149 160 0
-160 0
161 162 0
163 162 0
164 162 0
165 162 0
166 162 0
167 162 0
168 162 0
169 162 0
170 162 0
171 162 0
172 162 0
173 162 0
-174 0
-175 162 -176 0
175 -162 -176 0
176 -162 -175 0
175 162 176 0
-176 0
163 177 0
164 177 0
165 177 0
166 177 0
167 177 0
168 177 0
169 177 0
170 177 0
171 177 0
172 177 0
173 177 0
-178 0
177 -179 -180 0
179 -177 -180 0
180 -177 -179 0
179 177 180 0
-180 0
164 181 0
165 181 0
166 181 0
167 181 0
168 181 0
169 181 0
170 181 0
171 181 0
172 181 0
173 181 0
-182 0
181 -183 -184 0
183 -181 -184 0
184 -181 -183 0
183 181 184 0
-184 0
165 185 0
166 185 0
167 185 0
168 185 0
169 185 0
170 185 0
171 185 0
172 185 0
173 185 0
-186 0
185 -187 -188 0
187 -185 -188 0
188 -185 -187 0
187 185 188 0
-188 0
166 189 0
167 189 0
168 189 0
169 189 0
170 189 0
171 189 0
172 189 0
173 189 0
-190 0
189 -191 -192 0
191 -189 -192 0
192 -189 -191 0
191 189 192 0
-192 0
167 193 0
168 193 0
169 193 0
170 193 0
171 193 0
172 193 0
173 193 0
-194 0
193 -195 -196 0
195 -193 -196 0
196 -193 -195 0
195 193 196 0
-196 0
168 197 0
169 197 0
170 197 0
171 197 0
172 197 0
173 197 0
-198 0
197 -199 -200 0
199 -197 -200 0
200 -197 -199 0
199 197 200 0
-200 0
197 -201 -202 0
201 -197 -202 0
202 -197 -201 0
201 197 202 0
-202 0
197 -203 -204 0
203 -197 -204 0
204 -197 -203 0
203 197 204 0
-204 0
197 -205 -206 0
205 -197 -206 0
206 -197 -205 0
205 197 206 0
-206 0
197 -207 -208 0
207 -197 -208 0
208 -197 -207 0
207 197 208 0
-208 0
197 -209 -210 0
209 -197 -210 0
210 -197 -209 0
209 197 210 0
-210 0
211 212 0
213 212 0
214 212 0
215 212 0
216 212 0
217 212 0
218 212 0
-219 0
-220 212 -221 0
220 -212 -221 0
221 -212 -220 0
220 212 221 0
-221 0
213 222 0
214 222 0
215 222 0
216 222 0
217 222 0
218 222 0
-223 0
222 -224 -225 0
224 -222 -225 0
225 -222 -224 0
224 222 225 0
-225 0
214 226 0
215 226 0
216 226 0
217 226 0
218 226 0
-227 0
-228 226 -229 0
228 -226 -229 0
229 -226 -228 0
228 226 229 0
-229 0
215 230 0
216 230 0
217 230 0
218 230 0
-231 0
230 -232 -233 0
232 -230 -233 0
233 -230 -232 0
232 230 233 0
-233 0
216 234 0
217 234 0
218 234 0
-216 -217 -218 -234 0
234 -235 -236 0
235 -234 -236 0
236 -234 -235 0
235 234 236 0
-236 0
217 237 0
218 237 0
-217 -218 -237 0
-238 237 -239 0
238 -237 -239 0
239 -237 -238 0
238 237 239 0
-239 0
237 -240 -241 0
240 -237 -241 0
241 -237 -240 0
240 237 241 0
-241 0
242 243 0
244 243 0
245 243 0
246 243 0
247 243 0
248 243 0
249 243 0
250 243 0
251 243 0
252 243 0
253 243 0
254 243 0
-255 0
-256 243 -257 0
256 -243 -257 0
257 -243 -256 0
256 243 257 0
-257 0
244 258 0
245 258 0
246 258 0
247 258 0
248 258 0
249 258 0
250 258 0
251 258 0
252 258 0
253 258 0
254 258 0
-259 0
258 -260 -261 0
260 -258 -261 0
261 -258 -260 0
260 258 261 0
-261 0
245 262 0
246 262 0
247 262 0
248 262 0
249 262 0
250 262 0
251 262 0
252 262 0
253 262 0
254 262 0
-263 0
262 -264 -265 0
264 -262 -265 0
265 -262 -264 0
264 262 265 0
-265 0
246 266 0
247 266 0
248 266 0
249 266 0
250 266 0
251 266 0
252 266 0
253 266 0
254 266 0
-267 0
266 -268 -269 0
268 -266 -269 0
269 -266 -268 0
268 266 269 0
-269 0
247 270 0
248 270 0
249 270 0
250 270 0
251 270 0
252 270 0
253 270 0
254 270 0
-271 0
270 -272 -273 0
272 -270 -273 0
273 -270 -272 0
272 270 273 0
-273 0
248 274 0
249 274 0
250 274 0
251 274 0
252 274 0
253 274 0
254 274 0
-275 0
274 -276 -277 0
276 -274 -277 0
277 -274 -276 0
276 274 277 0
-277 0
249 278 0
250 278 0
251 278 0
252 278 0
253 278 0
254 278 0
-279 0
278 -280 -281 0
280 -278 -281 0
281 -278 -280 0
280 278 281 0
-281 0
278 -282 -283 0
282 -278 -283 0
283 -278 -282 0
282 278 283 0
-283 0
278 -284 -285 0
284 -278 -285 0
285 -278 -284 0
284 278 285 0
-285 0
278 -286 -287 0
286 -278 -287 0
287 -278 -286 0
286 278 287 0
-287 0
278 -288 -289 0
288 -278 -289 0
289 -278 -288 0
288 278 289 0
-289 0
278 -290 -291 0
290 -278 -291 0
291 -278 -290 0
290 278 291 0
-291 0
47 292 0
48 292 0
49 292 0
50 292 0
293 292 0
294 292 0
295 292 0
296 292 0
-297 0
-298 292 -299 0
298 -292 -299 0
299 -292 -298 0
298 292 299 0
-299 0
47 300 0
48 300 0
49 300 0
50 300 0
294 300 0
295 300 0
296 300 0
-301 0
300 -302 -303 0
302 -300 -303 0
303 -300 -302 0
302 300 303 0
-303 0
47 304 0
48 304 0
49 304 0
50 304 0
295 304 0
296 304 0
-305 0
304 -306 -307 0
306 -304 -307 0
307 -304 -306 0
306 304 307 0
-307 0
47 308 0
48 308 0
49 308 0
50 308 0
296 308 0
-309 0
308 -310 -311 0
310 -308 -311 0
311 -308 -310 0
310 308 311 0
-311 0
249 312 0
250 312 0
251 312 0
252 312 0
253 312 0
254 312 0
313 312 0
314 312 0
315 312 0
316 312 0
317 312 0
-318 0
-319 312 -320 0
319 -312 -320 0
320 -312 -319 0
319 312 320 0
-320 0
249 321 0
250 321 0
251 321 0
252 321 0
253 321 0
254 321 0
314 321 0
315 321 0
316 321 0
317 321 0
-322 0
321 -323 -324 0
323 -321 -324 0
324 -321 -323 0
323 321 324 0
-324 0
249 325 0
250 325 0
251 325 0
252 325 0
253 325 0
254 325 0
315 325 0
316 325 0
317 325 0
-326 0
325 -327 -328 0
327 -325 -328 0
328 -325 -327 0
327 325 328 0
-328 0
249 329 0
250 329 0
251 329 0
252 329 0
253 329 0
254 329 0
316 329 0
317 329 0
-330 0
329 -331 -332 0
331 -329 -332 0
332 -329 -331 0
331 329 332 0
-332 0
249 333 0
250 333 0
251 333 0
252 333 0
253 333 0
254 333 0
317 333 0
-334 0
333 -335 -336 0
335 -333 -336 0
336 -333 -335 0
335 333 336 0
-336 0
337 338 0
339 338 0
340 338 0
341 338 0
342 338 0
343 338 0
344 338 0
345 338 0
346 338 0
-347 0
-348 338 -349 0
348 -338 -349 0
349 -338 -348 0
348 338 349 0
-349 0
339 350 0
340 350 0
341 350 0
342 350 0
343 350 0
344 350 0
345 350 0
346 350 0
-351 0
350 -352 -353 0
352 -350 -353 0
353 -350 -352 0
352 350 353 0
-353 0
340 354 0
341 354 0
342 354 0
343 354 0
344 354 0
345 354 0
346 354 0
-355 0
354 -356 -357 0
356 -354 -357 0
357 -354 -356 0
356 354 357 0
-357 0
341 358 0
342 358 0
343 358 0
344 358 0
345 358 0
346 358 0
-359 0
358 -360 -361 0
360 -358 -361 0
361 -358 -360 0
360 358 361 0
-361 0
342 362 0
343 362 0
344 362 0
345 362 0
346 362 0
-363 0
362 -364 -365 0
364 -362 -365 0
365 -362 -364 0
364 362 365 0
-365 0
362 -366 -367 0
366 -362 -367 0
367 -362 -366 0
366 362 367 0
-367 0
362 -368 -369 0
368 -362 -369 0
369 -362 -368 0
368 362 369 0
-369 0
362 -370 -371 0
370 -362 -371 0
371 -362 -370 0
370 362 371 0
-371 0
362 -372 -373 0
372 -362 -373 0
373 -362 -372 0
372 362 373 0
-373 0
374 375 0
376 375 0
377 375 0
378 375 0
379 375 0
380 375 0
381 375 0
382 375 0
383 375 0
384 375 0
385 375 0
386 375 0
-387 0
-388 375 -389 0
388 -375 -389 0
389 -375 -388 0
388 375 389 0
-389 0
376 390 0
377 390 0
378 390 0
379 390 0
380 390 0
381 390 0
382 390 0
383 390 0
384 390 0
385 390 0
386 390 0
-391 0
390 -392 -393 0
392 -390 -393 0
393 -390 -392 0
392 390 393 0
-393 0
377 394 0
378 394 0
379 394 0
380 394 0
381 394 0
382 394 0
383 394 0
384 394 0
385 394 0
386 394 0
-395 0
394 -396 -397 0
396 -394 -397 0
397 -394 -396 0
396 394 397 0
-397 0
378 398 0
379 398 0
380 398 0
381 398 0
382 398 0
383 398 0
384 398 0
385 398 0
386 398 0
-399 0
398 -400 -401 0
400 -398 -401 0
401 -398 -400 0
400 398 401 0
-401 0
379 402 0
380 402 0
381 402 0
382 402 0
383 402 0
384 402 0
385 402 0
386 402 0
-403 0
402 -404 -405 0
404 -402 -405 0
405 -402 -404 0
404 402 405 0
-405 0
380 406 0
381 406 0
382 406 0
383 406 0
384 406 0
385 406 0
386 406 0
-407 0
406 -408 -409 0
408 -406 -409 0
409 -406 -408 0
408 406 409 0
-409 0
381 410 0
382 410 0
383 410 0
384 410 0
385 410 0
386 410 0
-411 0
410 -412 -413 0
412 -410 -413 0
413 -410 -412 0
412 410 413 0
-413 0
410 -414 -415 0
414 -410 -415 0
415 -410 -414 0
414 410 415 0
-415 0
410 -416 -417 0
416 -410 -417 0
417 -410 -416 0
416 410 417 0
-417 0
410 -418 -419 0
418 -410 -419 0
419 -410 -418 0
418 410 419 0
-419 0
410 -420 -421 0
420 -410 -421 0
421 -410 -420 0
420 410 421 0
-421 0
410 -422 -423 0
422 -410 -423 0
423 -410 -422 0
422 410 423 0
-423 0
424 425 0
426 425 0
427 425 0
428 425 0
429 425 0
430 425 0
431 425 0
432 425 0
433 425 0
434 425 0
-435 0
-436 425 -437 0
436 -425 -437 0
437 -425 -436 0
436 425 437 0
-437 0
426 438 0
427 438 0
428 438 0
429 438 0
430 438 0
431 438 0
432 438 0
433 438 0
434 438 0
-439 0
438 -440 -441 0
440 -438 -441 0
441 -438 -440 0
440 438 441 0
-441 0
427 442 0
428 442 0
429 442 0
430 442 0
431 442 0
432 442 0
433 442 0
434 442 0
-443 0
442 -444 -445 0
444 -442 -445 0
445 -442 -444 0
444 442 445 0
-445 0
428 446 0
429 446 0
430 446 0
431 446 0
432 446 0
433 446 0
434 446 0
-447 0
446 -448 -449 0
448 -446 -449 0
449 -446 -448 0
448 446 449 0
-449 0
429 450 0
430 450 0
431 450 0
432 450 0
433 450 0
434 450 0
-451 0
450 -452 -453 0
452 -450 -453 0
453 -450 -452 0
452 450 453 0
-453 0
430 454 0
431 454 0
432 454 0
433 454 0
434 454 0
-455 0
454 -456 -457 0
456 -454 -457 0
457 -454 -456 0
456 454 457 0
-457 0
431 458 0
432 458 0
433 458 0
434 458 0
-459 0
458 -460 -461 0
460 -458 -461 0
461 -458 -460 0
460 458 461 0
-461 0
458 -462 -463 0
462 -458 -463 0
463 -458 -462 0
462 458 463 0
-463 0
-464 458 -465 0
464 -458 -465 0
465 -458 -464 0
464 458 465 0
-465 0
458 -466 -467 0
466 -458 -467 0
467 -458 -466 0
466 458 467 0
-467 0
47 468 0
48 468 0
49 468 0
50 468 0
469 468 0
470 468 0
471 468 0
472 468 0
473 468 0
-474 0
-475 468 -476 0
475 -468 -476 0
476 -468 -475 0
475 468 476 0
-476 0
47 477 0
48 477 0
49 477 0
50 477 0
470 477 0
471 477 0
472 477 0
473 477 0
-478 0
477 -479 -480 0
479 -477 -480 0
480 -477 -479 0
479 477 480 0
-480 0
47 481 0
48 481 0
49 481 0
50 481 0
471 481 0
472 481 0
473 481 0
-482 0
481 -483 -484 0
483 -481 -484 0
484 -481 -483 0
483 481 484 0
-484 0
47 485 0
48 485 0
49 485 0
50 485 0
472 485 0
473 485 0
-486 0
485 -487 -488 0
487 -485 -488 0
488 -485 -487 0
487 485 488 0
-488 0
47 489 0
48 489 0
49 489 0
50 489 0
473 489 0
-490 0
489 -491 -492 0
491 -489 -492 0
492 -489 -491 0
491 489 492 0
-492 0
493 494 0
495 494 0
496 494 0
497 494 0
498 494 0
-499 0
-500 494 -501 0
500 -494 -501 0
501 -494 -500 0
500 494 501 0
-501 0
495 502 0
496 502 0
497 502 0
498 502 0
-503 0
502 -504 -505 0
504 -502 -505 0
505 -502 -504 0
504 502 505 0
-505 0
496 506 0
497 506 0
498 506 0
-496 -497 -498 -506 0
506 -507 -508 0
507 -506 -508 0
508 -506 -507 0
507 506 508 0
-508 0
497 509 0
498 509 0
-497 -498 -509 0
509 -510 -511 0
510 -509 -511 0
511 -509 -510 0
510 509 511 0
-511 0
512 -498 0
498 -512 0
90 513 0
91 513 0
92 513 0
93 513 0
94 513 0
95 513 0
514 513 0
515 513 0
516 513 0
517 513 0
518 513 0
-519 0
-520 513 -521 0
520 -513 -521 0
521 -513 -520 0
520 513 521 0
-521 0
90 522 0
91 522 0
92 522 0
93 522 0
94 522 0
95 522 0
515 522 0
516 522 0
517 522 0
518 522 0
-523 0
522 -524 -525 0
524 -522 -525 0
525 -522 -524 0
524 522 525 0
-525 0
90 526 0
91 526 0
92 526 0
93 526 0
94 526 0
95 526 0
516 526 0
517 526 0
518 526 0
-527 0
526 -528 -529 0
528 -526 -529 0
529 -526 -528 0
528 526 529 0
-529 0
90 530 0
91 530 0
92 530 0
93 530 0
94 530 0
95 530 0
517 530 0
518 530 0
-531 0
530 -532 -533 0
532 -530 -533 0
533 -530 -532 0
532 530 533 0
-533 0
90 534 0
91 534 0
92 534 0
93 534 0
94 534 0
95 534 0
518 534 0
-535 0
534 -536 -537 0
536 -534 -537 0
537 -534 -536 0
536 534 537 0
-537 0
538 539 0
540 539 0
541 539 0
542 539 0
543 539 0
544 539 0
545 539 0
546 539 0
-547 0
-548 539 -549 0
548 -539 -549 0
549 -539 -548 0
548 539 549 0
-549 0
540 550 0
541 550 0
542 550 0
543 550 0
544 550 0
545 550 0
546 550 0
-551 0
550 -552 -553 0
552 -550 -553 0
553 -550 -552 0
552 550 553 0
-553 0
541 554 0
542 554 0
543 554 0
544 554 0
545 554 0
546 554 0
-555 0
554 -556 -557 0
556 -554 -557 0
557 -554 -556 0
556 554 557 0
-557 0
542 558 0
543 558 0
544 558 0
545 558 0
546 558 0
-559 0
558 -560 -561 0
560 -558 -561 0
561 -558 -560 0
560 558 561 0
-561 0
558 -562 -563 0
562 -558 -563 0
563 -558 -562 0
562 558 563 0
-563 0
558 -564 -565 0
564 -558 -565 0
565 -558 -564 0
564 558 565 0
-565 0
558 -566 -567 0
566 -558 -567 0
567 -558 -566 0
566 558 567 0
-567 0
558 -568 -569 0
568 -558 -569 0
569 -558 -568 0
568 558 569 0
-569 0
249 570 0
250 570 0
251 570 0
252 570 0
253 570 0
254 570 0
571 570 0
-572 0
-573 570 -574 0
573 -570 -574 0
574 -570 -573 0
573 570 574 0
-574 0
47 575 0
48 575 0
49 575 0
50 575 0
296 575 0
576 575 0
577 575 0
578 575 0
579 575 0
580 575 0
-581 0
-582 575 -583 0
582 -575 -583 0
583 -575 -582 0
582 575 583 0
-583 0
47 584 0
48 584 0
49 584 0
50 584 0
296 584 0
577 584 0
578 584 0
579 584 0
580 584 0
-585 0
584 -586 -587 0
586 -584 -587 0
587 -584 -586 0
586 584 587 0
-587 0
47 588 0
48 588 0
49 588 0
50 588 0
296 588 0
578 588 0
579 588 0
580 588 0
-589 0
588 -590 -591 0
590 -588 -591 0
591 -588 -590 0
590 588 591 0
-591 0
47 592 0
48 592 0
49 592 0
50 592 0
296 592 0
579 592 0
580 592 0
-593 0
592 -594 -595 0
594 -592 -595 0
595 -592 -594 0
594 592 595 0
-595 0
47 596 0
48 596 0
49 596 0
50 596 0
296 596 0
580 596 0
-597 0
596 -598 -599 0
598 -596 -599 0
599 -596 -598 0
598 596 599 0
-599 0
47 600 0
48 600 0
49 600 0
50 600 0
601 600 0
602 600 0
603 600 0
604 600 0
605 600 0
606 600 0
-607 0
-608 600 -609 0
608 -600 -609 0
609 -600 -608 0
608 600 609 0
-609 0
47 610 0
48 610 0
49 610 0
50 610 0
602 610 0
603 610 0
604 610 0
605 610 0
606 610 0
-611 0
610 -612 -613 0
612 -610 -613 0
613 -610 -612 0
612 610 613 0
-613 0
47 614 0
48 614 0
49 614 0
50 614 0
603 614 0
604 614 0
605 614 0
606 614 0
-615 0
614 -616 -617 0
616 -614 -617 0
617 -614 -616 0
616 614 617 0
-617 0
47 618 0
48 618 0
49 618 0
50 618 0
604 618 0
605 618 0
606 618 0
-619 0
618 -620 -621 0
620 -618 -621 0
621 -618 -620 0
620 618 621 0
-621 0
47 622 0
48 622 0
49 622 0
50 622 0
605 622 0
606 622 0
-623 0
622 -624 -625 0
624 -622 -625 0
625 -622 -624 0
624 622 625 0
-625 0
47 626 0
48 626 0
49 626 0
50 626 0
606 626 0
-627 0
626 -628 -629 0
628 -626 -629 0
629 -626 -628 0
628 626 629 0
-629 0
431 630 0
432 630 0
433 630 0
434 630 0
631 630 0
632 630 0
633 630 0
634 630 0
-635 0
-636 630 -637 0
636 -630 -637 0
637 -630 -636 0
636 630 637 0
-637 0
431 638 0
432 638 0
433 638 0
434 638 0
632 638 0
633 638 0
634 638 0
-639 0
638 -640 -641 0
640 -638 -641 0
641 -638 -640 0
640 638 641 0
-641 0
431 642 0
432 642 0
433 642 0
434 642 0
633 642 0
634 642 0
-643 0
642 -644 -645 0
644 -642 -645 0
645 -642 -644 0
644 642 645 0
-645 0
431 646 0
432 646 0
433 646 0
434 646 0
634 646 0
-647 0
646 -648 -649 0
648 -646 -649 0
649 -646 -648 0
648 646 649 0
-649 0
431 650 0
432 650 0
433 650 0
434 650 0
651 650 0
652 650 0
653 650 0
654 650 0
655 650 0
656 650 0
657 650 0
658 650 0
659 650 0
-660 0
-661 650 -662 0
661 -650 -662 0
662 -650 -661 0
661 650 662 0
-662 0
431 663 0
432 663 0
433 663 0
434 663 0
652 663 0
653 663 0
654 663 0
655 663 0
656 663 0
657 663 0
658 663 0
659 663 0
-664 0
663 -665 -666 0
665 -663 -666 0
666 -663 -665 0
665 663 666 0
-666 0
431 667 0
432 667 0
433 667 0
434 667 0
653 667 0
654 667 0
655 667 0
656 667 0
657 667 0
658 667 0
659 667 0
-668 0
667 -669 -670 0
669 -667 -670 0
670 -667 -669 0
669 667 670 0
-670 0
431 671 0
432 671 0
433 671 0
434 671 0
654 671 0
655 671 0
656 671 0
657 671 0
658 671 0
659 671 0
-672 0
-673 671 -674 0
673 -671 -674 0
674 -671 -673 0
673 671 674 0
-674 0
431 675 0
432 675 0
433 675 0
434 675 0
655 675 0
656 675 0
657 675 0
658 675 0
659 675 0
-676 0
675 -677 -678 0
677 -675 -678 0
678 -675 -677 0
677 675 678 0
-678 0
431 679 0
432 679 0
433 679 0
434 679 0
656 679 0
657 679 0
658 679 0
659 679 0
-680 0
679 -681 -682 0
681 -679 -682 0
682 -679 -681 0
681 679 682 0
-682 0
431 683 0
432 683 0
433 683 0
434 683 0
657 683 0
658 683 0
659 683 0
-684 0
683 -685 -686 0
685 -683 -686 0
686 -683 -685 0
685 683 686 0
-686 0
431 687 0
432 687 0
433 687 0
434 687 0
658 687 0
659 687 0
-688 0
687 -689 -690 0
689 -687 -690 0
690 -687 -689 0
689 687 690 0
-690 0
431 691 0
432 691 0
433 691 0
434 691 0
659 691 0
-692 0
691 -693 -694 0
693 -691 -694 0
694 -691 -693 0
693 691 694 0
-694 0
47 695 0
48 695 0
49 695 0
50 695 0
606 695 0
696 695 0
697 695 0
698 695 0
-699 0
-700 695 -701 0
700 -695 -701 0
701 -695 -700 0
700 695 701 0
-701 0
47 702 0
48 702 0
49 702 0
50 702 0
606 702 0
697 702 0
698 702 0
-703 0
702 -704 -705 0
704 -702 -705 0
705 -702 -704 0
704 702 705 0
-705 0
47 706 0
48 706 0
49 706 0
50 706 0
606 706 0
698 706 0
-707 0
706 -708 -709 0
708 -706 -709 0
709 -706 -708 0
708 706 709 0
-709 0
47 710 0
48 710 0
49 710 0
50 710 0
473 710 0
711 710 0
-712 0
-713 710 -714 0
713 -710 -714 0
714 -710 -713 0
713 710 714 0
-714 0
44 715 0
45 715 0
46 715 0
47 715 0
48 715 0
49 715 0
50 715 0
716 715 0
-717 0
-718 715 -719 0
718 -715 -719 0
719 -715 -718 0
718 715 719 0
-719 0
2 720 0
721 720 0
722 720 0
723 720 0
724 720 0
-725 0
-726 720 -727 0
726 -720 -727 0
727 -720 -726 0
726 720 727 0
-727 0
2 728 0
722 728 0
723 728 0
724 728 0
-729 0
728 -730 -731 0
730 -728 -731 0
731 -728 -730 0
730 728 731 0
-731 0
2 732 0
723 732 0
724 732 0
-2 -723 -724 -732 0
732 -733 -734 0
733 -732 -734 0
734 -732 -733 0
733 732 734 0
-734 0
2 735 0
724 735 0
-2 -724 -735 0
735 -736 -737 0
736 -735 -737 0
737 -735 -736 0
736 735 737 0
-737 0
2 738 0
724 738 0
739 738 0
740 738 0
741 738 0
742 738 0
-743 0
-744 738 -745 0
744 -738 -745 0
745 -738 -744 0
744 738 745 0
-745 0
2 746 0
724 746 0
740 746 0
741 746 0
742 746 0
-747 0
746 -748 -749 0
748 -746 -749 0
749 -746 -748 0
748 746 749 0
-749 0
2 750 0
724 750 0
741 750 0
742 750 0
-751 0
750 -752 -753 0
752 -750 -753 0
753 -750 -752 0
752 750 753 0
-753 0
2 754 0
724 754 0
742 754 0
-2 -724 -742 -754 0
754 -755 -756 0
755 -754 -756 0
756 -754 -755 0
755 754 756 0
-756 0
46 757 0
47 757 0
48 757 0
49 757 0
50 757 0
758 757 0
759 757 0
760 757 0
761 757 0
-762 0
-763 757 -764 0
763 -757 -764 0
764 -757 -763 0
763 757 764 0
-764 0
46 765 0
47 765 0
48 765 0
49 765 0
50 765 0
759 765 0
760 765 0
761 765 0
-766 0
765 -767 -768 0
767 -765 -768 0
768 -765 -767 0
767 765 768 0
-768 0
46 769 0
47 769 0
48 769 0
49 769 0
50 769 0
760 769 0
761 769 0
-770 0
769 -771 -772 0
771 -769 -772 0
772 -769 -771 0
771 769 772 0
-772 0
46 773 0
47 773 0
48 773 0
49 773 0
50 773 0
761 773 0
-774 0
773 -775 -776 0
775 -773 -776 0
776 -773 -775 0
775 773 776 0
-776 0
777 778 0
779 778 0
139 778 0
141 778 0
142 778 0
143 778 0
144 778 0
145 778 0
-780 0
-781 778 -782 0
781 -778 -782 0
782 -778 -781 0
781 778 782 0
-782 0
779 783 0
139 783 0
141 783 0
142 783 0
143 783 0
144 783 0
145 783 0
-784 0
783 -785 -786 0
785 -783 -786 0
786 -783 -785 0
785 783 786 0
-786 0
90 787 0
91 787 0
92 787 0
93 787 0
94 787 0
95 787 0
788 787 0
789 787 0
790 787 0
-791 0
-792 787 -793 0
792 -787 -793 0
793 -787 -792 0
792 787 793 0
-793 0
90 794 0
91 794 0
92 794 0
93 794 0
94 794 0
95 794 0
789 794 0
790 794 0
-795 0
794 -796 -797 0
796 -794 -797 0
797 -794 -796 0
796 794 797 0
-797 0
90 798 0
91 798 0
92 798 0
93 798 0
94 798 0
95 798 0
790 798 0
-799 0
798 -800 -801 0
800 -798 -801 0
801 -798 -800 0
800 798 801 0
-801 0
342 802 0
343 802 0
344 802 0
345 802 0
346 802 0
803 802 0
804 802 0
805 802 0
806 802 0
-807 0
-808 802 -809 0
808 -802 -809 0
809 -802 -808 0
808 802 809 0
-809 0
342 810 0
343 810 0
344 810 0
345 810 0
346 810 0
804 810 0
805 810 0
806 810 0
-811 0
810 -812 -813 0
812 -810 -813 0
813 -810 -812 0
812 810 813 0
-813 0
342 814 0
343 814 0
344 814 0
345 814 0
346 814 0
805 814 0
806 814 0
-815 0
814 -816 -817 0
816 -814 -817 0
817 -814 -816 0
816 814 817 0
-817 0
342 818 0
343 818 0
344 818 0
345 818 0
346 818 0
806 818 0
-819 0
818 -820 -821 0
820 -818 -821 0
821 -818 -820 0
820 818 821 0
-821 0
429 822 0
430 822 0
431 822 0
432 822 0
433 822 0
434 822 0
823 822 0
824 822 0
-825 0
-826 822 -827 0
826 -822 -827 0
827 -822 -826 0
826 822 827 0
-827 0
429 828 0
430 828 0
431 828 0
432 828 0
433 828 0
434 828 0
824 828 0
-829 0
828 -830 -831 0
830 -828 -831 0
831 -828 -830 0
830 828 831 0
-831 0
832 833 0
834 833 0
835 833 0
836 833 0
837 833 0
838 833 0
839 833 0
840 833 0
841 833 0
-842 0
-843 833 -844 0
843 -833 -844 0
844 -833 -843 0
843 833 844 0
-844 0
834 845 0
835 845 0
836 845 0
837 845 0
838 845 0
839 845 0
840 845 0
841 845 0
-846 0
845 -847 -848 0
847 -845 -848 0
848 -845 -847 0
847 845 848 0
-848 0
835 849 0
836 849 0
837 849 0
838 849 0
839 849 0
840 849 0
841 849 0
-850 0
849 -851 -852 0
851 -849 -852 0
852 -849 -851 0
851 849 852 0
-852 0
836 853 0
837 853 0
838 853 0
839 853 0
840 853 0
841 853 0
-854 0
853 -855 -856 0
855 -853 -856 0
856 -853 -855 0
855 853 856 0
-856 0
837 857 0
838 857 0
839 857 0
840 857 0
841 857 0
-858 0
857 -859 -860 0
859 -857 -860 0
860 -857 -859 0
859 857 860 0
-860 0
838 861 0
839 861 0
840 861 0
841 861 0
-862 0
861 -863 -864 0
863 -861 -864 0
864 -861 -863 0
863 861 864 0
-864 0
861 -865 -866 0
865 -861 -866 0
866 -861 -865 0
865 861 866 0
-866 0
861 -867 -868 0
867 -861 -868 0
868 -861 -867 0
867 861 868 0
-868 0
-869 861 -870 0
869 -861 -870 0
870 -861 -869 0
869 861 870 0
-870 0
871 872 0
873 872 0
874 872 0
875 872 0
876 872 0
877 872 0
878 872 0
879 872 0
880 872 0
881 872 0
882 872 0
217 872 0
218 872 0
-883 0
-884 872 -885 0
884 -872 -885 0
885 -872 -884 0
884 872 885 0
-885 0
873 886 0
874 886 0
875 886 0
876 886 0
877 886 0
878 886 0
879 886 0
880 886 0
881 886 0
882 886 0
217 886 0
218 886 0
-887 0
886 -888 -889 0
888 -886 -889 0
889 -886 -888 0
888 886 889 0
-889 0
874 890 0
875 890 0
876 890 0
877 890 0
878 890 0
879 890 0
880 890 0
881 890 0
882 890 0
217 890 0
218 890 0
-891 0
890 -892 -893 0
892 -890 -893 0
893 -890 -892 0
892 890 893 0
-893 0
875 894 0
876 894 0
877 894 0
878 894 0
879 894 0
880 894 0
881 894 0
882 894 0
217 894 0
218 894 0
-895 0
894 -896 -897 0
896 -894 -897 0
897 -894 -896 0
896 894 897 0
-897 0
876 898 0
877 898 0
878 898 0
879 898 0
880 898 0
881 898 0
882 898 0
217 898 0
218 898 0
-899 0
898 -900 -901 0
900 -898 -901 0
901 -898 -900 0
900 898 901 0
-901 0
877 902 0
878 902 0
879 902 0
880 902 0
881 902 0
882 902 0
217 902 0
218 902 0
-903 0
902 -904 -905 0
904 -902 -905 0
905 -902 -904 0
904 902 905 0
-905 0
878 906 0
879 906 0
880 906 0
881 906 0
882 906 0
217 906 0
218 906 0
-907 0
906 -908 -909 0
908 -906 -909 0
909 -906 -908 0
908 906 909 0
-909 0
879 910 0
880 910 0
881 910 0
882 910 0
217 910 0
218 910 0
-911 0
910 -912 -913 0
912 -910 -913 0
913 -910 -912 0
912 910 913 0
-913 0
880 914 0
881 914 0
882 914 0
217 914 0
218 914 0
-915 0
914 -916 -917 0
916 -914 -917 0
917 -914 -916 0
916 914 917 0
-917 0
881 918 0
882 918 0
217 918 0
218 918 0
-919 0
918 -920 -921 0
920 -918 -921 0
921 -918 -920 0
920 918 921 0
-921 0
882 922 0
217 922 0
218 922 0
-217 -218 -882 -922 0
922 -923 -924 0
923 -922 -924 0
924 -922 -923 0
923 922 924 0
-924 0
838 925 0
839 925 0
840 925 0
841 925 0
926 925 0
927 925 0
928 925 0
929 925 0
930 925 0
-931 0
-932 925 -933 0
932 -925 -933 0
933 -925 -932 0
932 925 933 0
-933 0
838 934 0
839 934 0
840 934 0
841 934 0
927 934 0
928 934 0
929 934 0
930 934 0
-935 0
934 -936 -937 0
936 -934 -937 0
937 -934 -936 0
936 934 937 0
-937 0
838 938 0
839 938 0
840 938 0
841 938 0
928 938 0
929 938 0
930 938 0
-939 0
938 -940 -941 0
940 -938 -941 0
941 -938 -940 0
940 938 941 0
-941 0
838 942 0
839 942 0
840 942 0
841 942 0
929 942 0
930 942 0
-943 0
942 -944 -945 0
944 -942 -945 0
945 -942 -944 0
944 942 945 0
-945 0
838 946 0
839 946 0
840 946 0
841 946 0
930 946 0
-947 0
946 -948 -949 0
948 -946 -949 0
949 -946 -948 0
948 946 949 0
-949 0
2 950 0
723 950 0
724 950 0
951 950 0
-952 0
-953 950 -954 0
953 -950 -954 0
954 -950 -953 0
953 950 954 0
-954 0
47 955 0
48 955 0
49 955 0
50 955 0
605 955 0
606 955 0
956 955 0
-957 0
-958 955 -959 0
958 -955 -959 0
959 -955 -958 0
958 955 959 0
-959 0
431 960 0
432 960 0
433 960 0
434 960 0
658 960 0
659 960 0
961 960 0
962 960 0
963 960 0
964 960 0
965 960 0
966 960 0
-967 0
-968 960 -969 0
968 -960 -969 0
969 -960 -968 0
968 960 969 0
-969 0
431 970 0
432 970 0
433 970 0
434 970 0
658 970 0
659 970 0
962 970 0
963 970 0
964 970 0
965 970 0
966 970 0
-971 0
970 -972 -973 0
972 -970 -973 0
973 -970 -972 0
972 970 973 0
-973 0
431 974 0
432 974 0
433 974 0
434 974 0
658 974 0
659 974 0
963 974 0
964 974 0
965 974 0
966 974 0
-975 0
974 -976 -977 0
976 -974 -977 0
977 -974 -976 0
976 974 977 0
-977 0
431 978 0
432 978 0
433 978 0
434 978 0
658 978 0
659 978 0
964 978 0
965 978 0
966 978 0
-979 0
978 -980 -981 0
980 -978 -981 0
981 -978 -980 0
980 978 981 0
-981 0
431 982 0
432 982 0
433 982 0
434 982 0
658 982 0
659 982 0
965 982 0
966 982 0
-983 0
982 -984 -985 0
984 -982 -985 0
985 -982 -984 0
984 982 985 0
-985 0
431 986 0
432 986 0
433 986 0
434 986 0
658 986 0
659 986 0
966 986 0
-987 0
986 -988 -989 0
988 -986 -989 0
989 -986 -988 0
988 986 989 0
-989 0
8 990 0
9 990 0
10 990 0
11 990 0
12 990 0
991 990 0
992 990 0
993 990 0
994 990 0
-995 0
-996 990 -997 0
996 -990 -997 0
997 -990 -996 0
996 990 997 0
-997 0
8 998 0
9 998 0
10 998 0
11 998 0
12 998 0
992 998 0
993 998 0
994 998 0
-999 0
998 -1000 -1001 0
1000 -998 -1001 0
1001 -998 -1000 0
1000 998 1001 0
-1001 0
8 1002 0
9 1002 0
10 1002 0
11 1002 0
12 1002 0
993 1002 0
994 1002 0
-1003 0
1002 -1004 -1005 0
1004 -1002 -1005 0
1005 -1002 -1004 0
1004 1002 1005 0
-1005 0
8 1006 0
9 1006 0
10 1006 0
11 1006 0
12 1006 0
994 1006 0
-1007 0
1006 -1008 -1009 0
1008 -1006 -1009 0
1009 -1006 -1008 0
1008 1006 1009 0
-1009 0
431 1010 0
432 1010 0
433 1010 0
434 1010 0
653 1010 0
654 1010 0
655 1010 0
656 1010 0
657 1010 0
658 1010 0
659 1010 0
1011 1010 0
1012 1010 0
-1013 0
-1014 1010 -1015 0
1014 -1010 -1015 0
1015 -1010 -1014 0
1014 1010 1015 0
-1015 0
431 1016 0
432 1016 0
433 1016 0
434 1016 0
653 1016 0
654 1016 0
655 1016 0
656 1016 0
657 1016 0
658 1016 0
659 1016 0
1012 1016 0
-1017 0
1016 -1018 -1019 0
1018 -1016 -1019 0
1019 -1016 -1018 0
1018 1016 1019 0
-1019 0
47 1020 0
48 1020 0
49 1020 0
50 1020 0
293 1020 0
294 1020 0
295 1020 0
296 1020 0
1021 1020 0
1022 1020 0
-1023 0
-1024 1020 -1025 0
1024 -1020 -1025 0
1025 -1020 -1024 0
1024 1020 1025 0
-1025 0
47 1026 0
48 1026 0
49 1026 0
50 1026 0
293 1026 0
294 1026 0
295 1026 0
296 1026 0
1022 1026 0
-1027 0
1026 -1028 -1029 0
1028 -1026 -1029 0
1029 -1026 -1028 0
1028 1026 1029 0
-1029 0
90 1030 0
91 1030 0
92 1030 0
93 1030 0
94 1030 0
95 1030 0
788 1030 0
789 1030 0
790 1030 0
1031 1030 0
-1032 0
-1033 1030 -1034 0
1033 -1030 -1034 0
1034 -1030 -1033 0
1033 1030 1034 0
-1034 0
141 1035 0
142 1035 0
143 1035 0
144 1035 0
145 1035 0
1036 1035 0
-1037 0
-1038 1035 -1039 0
1038 -1035 -1039 0
1039 -1035 -1038 0
1038 1035 1039 0
-1039 0
1 0
-14 0
-30 0
-52 0
-97 0
-133 0
-147 0
-175 0
-220 0
-228 0
-238 0
-256 0
-298 0
-319 0
-348 0
-388 0
-436 0
-464 0
-475 0
-500 0
-520 0
-548 0
-573 0
-582 0
-608 0
-636 0
-661 0
-673 0
-700 0
-713 0
-718 0
-726 0
-744 0
-763 0
-781 0
-792 0
-808 0
-826 0
-843 0
-869 0
-884 0
-932 0
-953 0
-958 0
-968 0
-996 0
-1014 0
-1024 0
-1033 0
-1038 0
